2358  1 1 1 1 1 1 1 1 1 0 1 1 0 1 1
1726  1 1 1 1 1 1 1 1 1 0 0 1 1 1 0
2064  1 1 1 1 1 1 0 1 1 1 1 1 1 1 0
1485  0 1 0 1 1 1 1 1 1 1 1 1 1 1 1
1479  1 0 1 1 0 1 1 1 1 0 1 1 1 1 1
1852  1 1 1 1 1 1 1 1 1 1 1 1 1 1 1
1987  1 1 1 1 1 1 1 1 1 1 1 1 1 1 1
1636  1 1 1 1 1 1 1 1 0 1 1 1 1 1 1
1664  1 1 1 1 1 1 1 1 1 1 1 0 1 1 0
1806  1 1 1 1 1 1 1 1 0 1 0 1 1 1 1
2084  1 0 1 1 1 1 1 1 1 1 1 1 1 0 1
1454  0 1 1 1 1 1 1 1 1 1 1 1 1 1 1
1627  1 1 1 1 1 1 1 1 1 1 1 0 1 1 0
2087  0 0 1 1 1 1 1 1 0 1 0 1 1 1 1
1778  1 1 1 1 1 1 1 1 1 1 0 1 1 1 1
1874  1 1 1 1 1 0 1 1 1 1 1 1 1 0 1
1634  1 1 1 1 1 0 1 1 1 1 1 1 0 1 1
1817  1 1 1 1 0 1 1 1 0 1 0 1 1 1 1
1921  1 0 1 1 1 1 1 1 1 0 1 1 1 1 1
1769  1 1 1 1 1 1 1 1 1 1 1 1 1 1 1
1787  1 1 1 1 1 1 1 0 1 1 1 0 0 1 0
2021  1 1 1 1 1 1 1 1 1 1 1 1 0 1 1
1778  1 1 1 1 1 1 1 1 1 1 1 1 1 1 1
1990  1 1 1 1 1 1 1 1 1 1 1 1 1 1 1
1470  1 1 1 1 1 1 1 1 1 1 1 0 1 1 1
2122  1 1 1 1 1 1 1 1 1 1 1 1 1 1 1
199  0 0 0 0 0 0 0 0 0 0 0 0 0 0 1
1201  1 1 1 1 1 1 1 0 1 1 0 1 0 1 1
1915  1 1 1 1 1 1 1 1 1 1 1 1 1 1 1
1833  1 1 1 1 1 1 1 1 1 1 1 1 1 1 1
1274  1 0 1 1 1 1 1 1 0 1 0 1 1 1 1
1984  1 1 1 1 1 1 1 1 1 1 1 1 0 1 1
2238  1 1 1 1 1 1 1 1 1 0 1 1 1 1 0
1948  1 1 1 1 1 1 1 1 1 1 0 1 1 1 1
1609  1 0 1 1 1 1 1 1 0 1 1 1 1 1 1
1763  1 1 1 1 1 1 1 1 1 0 1 1 1 1 1
2017  1 1 1 1 1 1 0 1 1 1 1 1 1 1 1
1846  1 1 1 1 1 1 1 1 1 1 1 1 1 0 1
2011  1 1 1 1 1 1 1 1 1 1 0 1 1 1 1
1821  1 1 0 1 1 1 1 1 1 1 1 0 0 1 1
2167  1 1 1 1 0 1 1 1 1 1 1 1 1 0 1
1860  1 1 1 0 1 1 1 1 1 1 1 1 1 1 1
1439  0 1 1 1 1 1 1 0 1 1 1 1 1 1 1
1641  1 1 1 1 1 1 0 0 1 1 1 1 1 0 1
1776  1 1 1 1 1 1 1 1 1 1 1 0 1 1 1
1995  1 1 1 1 1 1 1 1 1 1 1 1 1 1 0
2008  1 1 1 1 1 1 0 1 1 1 1 1 1 1 1
1381  1 1 1 1 1 1 1 0 1 1 1 1 1 0 1
1771  1 1 1 1 1 1 0 1 1 1 1 1 1 1 1
1873  1 1 1 1 1 1 1 1 1 1 1 1 1 1 1